\ This file has been generated by Portfolio Optimizer
\ ENCODING=ISO-8859-1
\Problem name: Portfolio Optimization
Minimize
 obj: [ 51 portfolio_weight_0^2 + 84 portfolio_weight_1^2 + 98 portfolio_weight_2^2 + 74 portfolio_weight_3^2 + 96 portfolio_weight_4^2 + 90 portfolio_weight_5^2 + 93 portfolio_weight_6^2 + 72 portfolio_weight_7^2 + 51 portfolio_weight_8^2 + 52 portfolio_weight_9^2 + 62 portfolio_weight_10^2 + 76 portfolio_weight_11^2 + 76 portfolio_weight_12^2 + 68 portfolio_weight_13^2 + 87 portfolio_weight_14^2 + 100 portfolio_weight_15^2 + 70 portfolio_weight_16^2 + 62 portfolio_weight_17^2 + 54 portfolio_weight_18^2 + 59 portfolio_weight_19^2 + 66 portfolio_weight_20^2 + 95 portfolio_weight_21^2 + 92 portfolio_weight_22^2 + 97 portfolio_weight_23^2 + 61 portfolio_weight_24^2 + 78 portfolio_weight_25^2 + 85 portfolio_weight_26^2 + 97 portfolio_weight_27^2 + 83 portfolio_weight_28^2 + 64 portfolio_weight_29^2 + 97 portfolio_weight_30^2 ]/2
Subject To
 budget: portfolio_weight_0 + portfolio_weight_1 + portfolio_weight_2 + portfolio_weight_3 + portfolio_weight_4 + portfolio_weight_5 + portfolio_weight_6 + portfolio_weight_7 + portfolio_weight_8 + portfolio_weight_9 + portfolio_weight_10 + portfolio_weight_11 + portfolio_weight_12 + portfolio_weight_13 + portfolio_weight_14 + portfolio_weight_15 + portfolio_weight_16 + portfolio_weight_17 + portfolio_weight_18 + portfolio_weight_19 + portfolio_weight_20 + portfolio_weight_21 + portfolio_weight_22 + portfolio_weight_23 + portfolio_weight_24 + portfolio_weight_25 + portfolio_weight_26 + portfolio_weight_27 + portfolio_weight_28 + portfolio_weight_29 + portfolio_weight_30 = 1
 max_dev_0: portfolio_weight_0 <= 0.1638899691309046
 min_dev_0: portfolio_weight_0 >= 0.0638899691309046
 max_dev_1: portfolio_weight_1 <= 0.096404468614575
 min_dev_1: portfolio_weight_1 >= 0
 max_dev_2: portfolio_weight_2 <= 0.0738242009046295
 min_dev_2: portfolio_weight_2 >= 0
 max_dev_3: portfolio_weight_3 <= 0.054451773063131
 min_dev_3: portfolio_weight_3 >= 0
 max_dev_4: portfolio_weight_4 <= 0.0672740570195594
 min_dev_4: portfolio_weight_4 >= 0
 max_dev_5: portfolio_weight_5 <= 0.0595069363525467
 min_dev_5: portfolio_weight_5 >= 0
 max_dev_6: portfolio_weight_6 <= 0.2436807117249061
 min_dev_6: portfolio_weight_6 >= 0.1436807117249061
 max_dev_7: portfolio_weight_7 <= 0.0685298409603266
 min_dev_7: portfolio_weight_7 >= 0
 max_dev_8: portfolio_weight_8 <= 0.0749899333220054
 min_dev_8: portfolio_weight_8 >= 0
 max_dev_9: portfolio_weight_9 <= 0.08834996617911
 min_dev_9: portfolio_weight_9 >= 0
 max_dev_10: portfolio_weight_10 <= 0.0730777907636092
 min_dev_10: portfolio_weight_10 >= 0
 max_dev_11: portfolio_weight_11 <= 0.1703397882631964
 min_dev_11: portfolio_weight_11 >= 0.0703397882631964
 max_dev_12: portfolio_weight_12 <= 0.061853449332514
 min_dev_12: portfolio_weight_12 >= 0
 max_dev_13: portfolio_weight_13 <= 0.076839527969219
 min_dev_13: portfolio_weight_13 >= 0
 max_dev_14: portfolio_weight_14 <= 0.0605149461109634
 min_dev_14: portfolio_weight_14 >= 0
 max_dev_15: portfolio_weight_15 <= 0.0559017313596471
 min_dev_15: portfolio_weight_15 >= 0
 max_dev_16: portfolio_weight_16 <= 0.061983122230412
 min_dev_16: portfolio_weight_16 >= 0
 max_dev_17: portfolio_weight_17 <= 0.0712898721308973
 min_dev_17: portfolio_weight_17 >= 0
 max_dev_18: portfolio_weight_18 <= 0.0643818363434674
 min_dev_18: portfolio_weight_18 >= 0
 max_dev_19: portfolio_weight_19 <= 0.0610546072857118
 min_dev_19: portfolio_weight_19 >= 0
 max_dev_20: portfolio_weight_20 <= 0.0554137976014357
 min_dev_20: portfolio_weight_20 >= 0
 max_dev_21: portfolio_weight_21 <= 0.0703313229080652
 min_dev_21: portfolio_weight_21 >= 0
 max_dev_22: portfolio_weight_22 <= 0.0549064364081308
 min_dev_22: portfolio_weight_22 >= 0
 max_dev_23: portfolio_weight_23 <= 0.0972439325267229
 min_dev_23: portfolio_weight_23 >= 0
 max_dev_24: portfolio_weight_24 <= 0.0739917020538284
 min_dev_24: portfolio_weight_24 >= 0
 max_dev_25: portfolio_weight_25 <= 0.055143412503729
 min_dev_25: portfolio_weight_25 >= 0
 max_dev_26: portfolio_weight_26 <= 0.0662169856979852
 min_dev_26: portfolio_weight_26 >= 0
 max_dev_27: portfolio_weight_27 <= 0.0604135918785517
 min_dev_27: portfolio_weight_27 >= 0
 max_dev_28: portfolio_weight_28 <= 0.0804000052251148
 min_dev_28: portfolio_weight_28 >= 0
 max_dev_29: portfolio_weight_29 <= 0.134412771892589
 min_dev_29: portfolio_weight_29 >= 0.034412771892589
 max_dev_30: portfolio_weight_30 <= 0.0533875122425155
 min_dev_30: portfolio_weight_30 >= 0
Bounds
 w[0] <= 1
 w[1] <= 1
 w[2] <= 1
 w[3] <= 1
 w[4] <= 1
 w[5] <= 1
 w[6] <= 1
 w[7] <= 1
 w[8] <= 1
 w[9] <= 1
 w[10] <= 1
 w[11] <= 1
 w[12] <= 1
 w[13] <= 1
 w[14] <= 1
 w[15] <= 1
 w[16] <= 1
 w[17] <= 1
 w[18] <= 1
 w[19] <= 1
 w[20] <= 1
 w[21] <= 1
 w[22] <= 1
 w[23] <= 1
 w[24] <= 1
 w[25] <= 1
 w[26] <= 1
 w[27] <= 1
 w[28] <= 1
 w[29] <= 1
 w[30] <= 1
 Constant = 1
End